Geographic Exponential Decay
20 294 284 216 65 278 288 257 3 208 217 9 191 157 171 165 49 144 68 292 97
p edge 320 613
e 0 300 2.0
e 0 83 3.0
e 1 168 3.0
e 1 307 3.0
e 2 277 2.0
e 2 189 10.0
e 3 111 60.0
e 3 246 62.0
e 3 241 53.0
e 3 161 76.0
e 3 55 10.0
e 3 316 23.0
e 3 91 72.0
e 3 75 41.0
e 3 207 38.0
e 3 266 45.0
e 3 95 37.0
e 3 88 73.0
e 3 133 1.0
e 3 90 5.0
e 3 42 65.0
e 3 96 8.0
e 3 175 68.0
e 4 178 17.0
e 4 305 6.0
e 4 42 21.0
e 4 218 3.0
e 4 167 1.0
e 5 303 2.0
e 6 301 2.0
e 7 164 6.0
e 7 192 10.0
e 7 308 11.0
e 8 154 5.0
e 8 127 2.0
e 9 281 32.0
e 9 270 62.0
e 9 307 63.0
e 9 46 43.0
e 9 130 37.0
e 9 70 36.0
e 9 316 83.0
e 9 237 45.0
e 9 171 42.0
e 9 47 56.0
e 9 181 86.0
e 9 60 92.0
e 9 71 17.0
e 9 36 51.0
e 9 131 56.0
e 9 69 41.0
e 9 254 4.0
e 10 107 3.0
e 11 208 96.0
e 12 216 50.0
e 13 92 1.0
e 13 281 11.0
e 13 280 10.0
e 14 50 13.0
e 14 260 20.0
e 14 305 12.0
e 14 71 4.0
e 14 182 1.0
e 15 120 1.0
e 16 158 1.0
e 17 139 2.0
e 18 113 1.0
e 18 114 3.0
e 19 300 8.0
e 20 152 6.0
e 21 78 41.0
e 21 52 17.0
e 21 285 8.0
e 21 6 40.0
e 21 68 16.0
e 21 1 33.0
e 21 14 5.0
e 21 204 33.0
e 21 225 40.0
e 22 87 6.0
e 22 163 34.0
e 22 277 6.0
e 22 113 42.0
e 22 151 11.0
e 22 173 32.0
e 22 82 18.0
e 22 290 6.0
e 22 213 35.0
e 23 243 5.0
e 24 300 4.0
e 25 262 8.0
e 26 226 2.0
e 27 43 1.0
e 28 59 1.0
e 29 120 1.0
e 30 51 2.0
e 30 9 16.0
e 31 166 2.0
e 32 78 1.0
e 33 45 3.0
e 33 81 4.0
e 34 203 3.0
e 35 190 9.0
e 35 161 4.0
e 35 125 12.0
e 37 28 1.0
e 38 317 1.0
e 39 27 6.0
e 39 307 5.0
e 39 288 96.0
e 40 202 4.0
e 41 68 31.0
e 41 240 2.0
e 44 42 1.0
e 45 28 6.0
e 46 178 2.0
e 47 53 1.0
e 48 277 1.0
e 49 62 43.0
e 49 107 58.0
e 49 241 12.0
e 49 112 36.0
e 49 47 59.0
e 49 185 21.0
e 49 108 99.0
e 49 217 94.0
e 49 37 34.0
e 49 223 16.0
e 49 25 3.0
e 49 9 89.0
e 49 52 53.0
e 49 186 52.0
e 49 95 56.0
e 49 281 73.0
e 49 265 46.0
e 50 111 1.0
e 52 37 11.0
e 53 80 8.0
e 53 175 5.0
e 54 181 26.0
e 54 18 1.0
e 54 147 29.0
e 54 204 27.0
e 54 228 50.0
e 54 167 18.0
e 54 251 1.0
e 54 290 6.0
e 54 29 46.0
e 56 69 11.0
e 57 309 1.0
e 57 12 4.0
e 58 123 1.0
e 58 313 1.0
e 60 49 79.0
e 60 143 22.0
e 60 13 2.0
e 60 1 23.0
e 61 274 36.0
e 61 75 20.0
e 61 36 18.0
e 61 125 32.0
e 61 34 19.0
e 61 24 31.0
e 61 179 43.0
e 61 81 31.0
e 61 269 48.0
e 62 84 1.0
e 63 233 1.0
e 63 93 7.0
e 64 235 11.0
e 64 278 66.0
e 64 304 1.0
e 65 269 74.0
e 65 138 37.0
e 65 237 81.0
e 65 104 87.0
e 65 302 26.0
e 65 296 6.0
e 65 91 91.0
e 65 268 20.0
e 65 1 39.0
e 65 18 2.0
e 65 287 91.0
e 65 180 31.0
e 65 186 72.0
e 65 174 99.0
e 65 311 54.0
e 65 260 63.0
e 65 127 27.0
e 66 104 1.0
e 67 258 2.0
e 68 112 16.0
e 68 101 80.0
e 68 227 95.0
e 68 104 11.0
e 68 298 50.0
e 68 42 100.0
e 68 43 100.0
e 68 31 41.0
e 68 214 92.0
e 68 124 54.0
e 68 137 30.0
e 68 57 53.0
e 68 16 6.0
e 68 283 41.0
e 68 303 85.0
e 69 273 6.0
e 71 46 9.0
e 72 171 67.0
e 73 50 5.0
e 74 287 6.0
e 76 114 2.0
e 77 123 2.0
e 79 144 13.0
e 80 146 4.0
e 80 195 7.0
e 82 151 4.0
e 85 146 1.0
e 86 147 2.0
e 87 54 15.0
e 87 128 6.0
e 88 274 1.0
e 89 307 5.0
e 90 302 1.0
e 92 20 3.0
e 92 243 1.0
e 93 289 10.0
e 93 302 10.0
e 94 225 1.0
e 97 192 50.0
e 97 204 89.0
e 97 244 60.0
e 97 137 15.0
e 97 316 92.0
e 97 289 27.0
e 97 232 12.0
e 97 74 84.0
e 97 32 66.0
e 97 35 65.0
e 97 136 58.0
e 97 135 27.0
e 97 209 25.0
e 97 73 44.0
e 97 291 28.0
e 97 224 14.0
e 97 245 73.0
e 98 37 3.0
e 98 189 6.0
e 99 65 5.0
e 100 104 2.0
e 102 88 4.0
e 102 230 2.0
e 103 181 1.0
e 105 304 22.0
e 105 297 3.0
e 105 177 22.0
e 105 249 19.0
e 105 202 22.0
e 106 185 8.0
e 106 161 6.0
e 106 124 15.0
e 106 246 4.0
e 106 129 9.0
e 107 121 6.0
e 108 241 2.0
e 108 132 10.0
e 109 309 1.0
e 110 277 1.0
e 115 23 5.0
e 115 63 1.0
e 116 180 4.0
e 116 258 4.0
e 117 183 17.0
e 117 184 7.0
e 117 276 15.0
e 117 181 15.0
e 117 269 18.0
e 118 38 1.0
e 118 213 4.0
e 119 8 1.0
e 121 165 66.0
e 122 81 3.0
e 122 206 3.0
e 126 255 2.0
e 128 314 2.0
e 129 204 2.0
e 131 156 2.0
e 133 237 4.0
e 134 179 2.0
e 138 160 1.0
e 140 31 8.0
e 140 155 6.0
e 140 270 2.0
e 141 137 1.0
e 142 306 1.0
e 144 64 2.0
e 144 208 53.0
e 144 297 49.0
e 144 197 51.0
e 144 293 17.0
e 144 241 99.0
e 144 184 7.0
e 144 311 25.0
e 144 152 92.0
e 144 170 87.0
e 144 147 47.0
e 144 174 65.0
e 144 247 65.0
e 144 13 98.0
e 144 55 32.0
e 144 67 52.0
e 145 220 1.0
e 148 224 1.0
e 149 239 24.0
e 150 276 1.0
e 150 153 7.0
e 153 26 11.0
e 153 17 3.0
e 154 207 9.0
e 154 74 9.0
e 157 74 26.0
e 157 230 92.0
e 157 89 44.0
e 157 255 81.0
e 157 271 18.0
e 157 121 90.0
e 157 290 6.0
e 157 122 11.0
e 157 15 96.0
e 157 213 29.0
e 157 75 79.0
e 157 197 87.0
e 157 19 35.0
e 157 38 1.0
e 157 236 3.0
e 157 95 89.0
e 157 73 1.0
e 158 318 6.0
e 159 94 1.0
e 162 251 7.0
e 162 250 1.0
e 162 153 9.0
e 165 72 29.0
e 165 178 97.0
e 165 195 7.0
e 165 159 84.0
e 165 71 97.0
e 165 182 34.0
e 165 200 41.0
e 165 14 87.0
e 165 27 22.0
e 165 132 58.0
e 165 35 63.0
e 165 103 50.0
e 165 64 72.0
e 165 279 35.0
e 165 301 47.0
e 165 105 22.0
e 169 311 4.0
e 169 29 1.0
e 171 45 78.0
e 171 218 73.0
e 171 232 84.0
e 171 80 49.0
e 171 43 57.0
e 171 204 10.0
e 171 249 19.0
e 171 153 10.0
e 171 195 89.0
e 171 255 69.0
e 171 279 11.0
e 171 309 35.0
e 171 257 92.0
e 171 91 19.0
e 171 297 18.0
e 172 232 2.0
e 173 273 1.0
e 176 218 4.0
e 176 77 1.0
e 177 181 4.0
e 183 309 1.0
e 183 142 1.0
e 187 272 1.0
e 187 205 5.0
e 188 157 1.0
e 188 196 10.0
e 188 66 8.0
e 189 84 6.0
e 189 316 22.0
e 189 105 17.0
e 190 292 71.0
e 191 188 79.0
e 191 31 56.0
e 191 239 19.0
e 191 61 62.0
e 191 269 94.0
e 191 117 32.0
e 191 202 25.0
e 191 208 87.0
e 191 305 23.0
e 191 105 26.0
e 191 272 78.0
e 191 240 88.0
e 191 155 65.0
e 191 166 29.0
e 191 145 18.0
e 191 242 32.0
e 191 262 95.0
e 193 186 2.0
e 194 29 5.0
e 194 99 5.0
e 198 65 50.0
e 198 30 6.0
e 198 26 10.0
e 199 258 2.0
e 201 252 1.0
e 201 0 5.0
e 203 155 4.0
e 205 174 9.0
e 205 22 31.0
e 208 193 79.0
e 208 266 99.0
e 208 310 56.0
e 208 278 60.0
e 208 245 43.0
e 208 94 39.0
e 208 34 12.0
e 208 68 77.0
e 208 51 12.0
e 208 305 7.0
e 208 279 82.0
e 208 306 47.0
e 208 89 17.0
e 208 304 57.0
e 209 4 13.0
e 209 98 7.0
e 209 106 1.0
e 209 271 22.0
e 210 7 3.0
e 211 30 2.0
e 211 19 2.0
e 212 59 2.0
e 215 107 12.0
e 216 314 86.0
e 216 10 92.0
e 216 113 85.0
e 216 260 63.0
e 216 202 39.0
e 216 301 9.0
e 216 70 33.0
e 216 45 46.0
e 216 203 45.0
e 216 138 31.0
e 216 65 12.0
e 216 253 99.0
e 216 53 15.0
e 216 274 75.0
e 216 205 55.0
e 216 239 59.0
e 217 117 78.0
e 217 2 2.0
e 217 216 73.0
e 217 35 21.0
e 217 83 86.0
e 217 166 67.0
e 217 276 34.0
e 217 249 86.0
e 217 192 74.0
e 217 3 19.0
e 217 56 82.0
e 217 94 41.0
e 217 278 41.0
e 217 38 90.0
e 217 282 85.0
e 217 289 60.0
e 219 93 1.0
e 221 176 2.0
e 222 80 5.0
e 228 189 4.0
e 229 87 1.0
e 231 211 1.0
e 231 230 3.0
e 231 28 8.0
e 234 182 6.0
e 235 300 8.0
e 236 238 4.0
e 238 56 1.0
e 239 73 13.0
e 239 293 11.0
e 243 268 11.0
e 248 200 1.0
e 250 123 4.0
e 256 91 2.0
e 257 24 50.0
e 257 279 54.0
e 257 107 51.0
e 257 15 59.0
e 257 115 82.0
e 257 269 17.0
e 257 18 28.0
e 257 82 13.0
e 257 116 83.0
e 257 182 89.0
e 257 123 58.0
e 257 207 69.0
e 257 281 60.0
e 257 118 21.0
e 257 242 52.0
e 257 223 22.0
e 259 308 1.0
e 261 179 4.0
e 261 306 1.0
e 262 226 1.0
e 263 179 1.0
e 264 222 1.0
e 265 106 3.0
e 267 312 2.0
e 275 79 1.0
e 278 111 26.0
e 278 215 3.0
e 278 59 9.0
e 278 218 31.0
e 278 212 19.0
e 278 284 36.0
e 278 131 98.0
e 278 54 89.0
e 278 240 26.0
e 278 81 97.0
e 278 102 91.0
e 278 255 98.0
e 278 286 18.0
e 278 97 69.0
e 282 19 4.0
e 284 291 76.0
e 284 13 84.0
e 284 312 97.0
e 284 208 55.0
e 284 155 34.0
e 284 0 54.0
e 284 242 47.0
e 284 77 59.0
e 284 176 1.0
e 284 274 1.0
e 284 310 38.0
e 284 229 1.0
e 284 32 16.0
e 284 108 72.0
e 284 269 19.0
e 284 7 35.0
e 285 221 6.0
e 285 200 10.0
e 286 147 11.0
e 287 278 73.0
e 288 185 74.0
e 288 243 32.0
e 288 32 43.0
e 288 45 8.0
e 288 180 68.0
e 288 30 80.0
e 288 248 4.0
e 288 75 68.0
e 288 289 98.0
e 288 168 12.0
e 288 223 13.0
e 288 3 61.0
e 288 246 22.0
e 288 108 1.0
e 288 76 87.0
e 288 137 74.0
e 292 112 59.0
e 292 199 46.0
e 292 71 23.0
e 292 176 97.0
e 292 293 55.0
e 292 256 7.0
e 292 314 44.0
e 292 200 20.0
e 292 48 96.0
e 292 83 84.0
e 292 34 53.0
e 292 315 62.0
e 292 278 88.0
e 292 138 54.0
e 292 276 4.0
e 292 147 49.0
e 294 280 73.0
e 294 92 86.0
e 294 237 56.0
e 294 119 44.0
e 294 246 38.0
e 294 60 95.0
e 294 306 62.0
e 294 238 22.0
e 294 54 53.0
e 294 228 24.0
e 294 93 87.0
e 294 15 26.0
e 294 132 21.0
e 294 82 99.0
e 294 33 75.0
e 294 239 60.0
e 294 23 23.0
e 295 260 1.0
e 295 129 11.0
e 295 180 21.0
e 295 249 18.0
e 295 136 1.0
e 299 163 1.0
e 318 130 8.0
e 318 114 10.0
e 318 291 21.0
e 318 53 13.0
e 319 6 1.0
